N = 5;
lengths = [130, 120, 125, 150, 300];
widths = [130, 80, 95, 70, 230];
heights = [40, 30, 25, 10, 100];
reds = [197, 132, 155, 111, 71];
greens = [215, 248, 244, 71, 48];
blues = [20, 207, 183, 144, 128];
